language ESSENCE' 1.0
$ minion Nodes: 5
$ minion TotalTime: 0.002727
$ Savile Row TotalTime: 0.606
letting aux__7 be 13
letting x_SetOccurrence be [false, false, true, false, false, false, false, false, false, false, false, false, false, true;int(0..13)]
letting x_SetExplicitVarSizeWithDefault be [2, 13;int(1..2)]
